db/data/7095183449406278475325207022207921539.z3.out
-------------------
2500.086587384
